(set-logic ALL)
(declare-fun seed0_I0_2 () Int)
(declare-fun seed0_I0_4 () Int)
(declare-fun seed0_I0_6 () Int)
(declare-fun seed0_PCTEMP_LHS_1 () Int)
(declare-fun seed0_PCTEMP_LHS_2 () Int)
(declare-fun seed0_PCTEMP_LHS_3 () Int)
(declare-fun seed0_T0_2 () String)
(declare-fun seed0_T0_4 () String)
(declare-fun seed0_T0_6 () String)
(declare-fun seed0_T1_2 () String)
(declare-fun seed0_T1_4 () String)
(declare-fun seed0_T1_6 () String)
(declare-fun seed0_T2_2 () String)
(declare-fun seed0_T2_4 () String)
(declare-fun seed0_T2_6 () String)
(declare-fun seed0_T3_2 () String)
(declare-fun seed0_T3_4 () String)
(declare-fun seed0_T3_6 () String)
(declare-fun seed0_T4_2 () String)
(declare-fun seed0_T4_4 () String)
(declare-fun seed0_T4_6 () String)
(declare-fun seed0_T5_2 () String)
(declare-fun seed0_T5_4 () String)
(declare-fun seed0_T5_6 () String)
(declare-fun seed0_T_4 () Bool)
(declare-fun seed0_T_5 () Bool)
(declare-fun seed0_T_6 () Bool)
(declare-fun seed0_T_7 () Bool)
(declare-fun seed0_T_8 () Bool)
(declare-fun seed0_T_9 () Bool)
(declare-fun seed0_T_SELECT_1 () Bool)
(declare-fun seed0_T_SELECT_2 () Bool)
(declare-fun seed0_T_SELECT_3 () Bool)
(declare-fun seed0_T_a () Bool)
(declare-fun seed0_T_b () Bool)
(declare-fun seed0_var_0xINPUT_34919 () String)
(assert (and (or (= seed0_T_SELECT_1 (not (= seed0_PCTEMP_LHS_1 (- 1)))) (=> (< (+ seed0_PCTEMP_LHS_2 (- 171)) (+ seed0_I0_4 (- 839))) (distinct (* seed0_PCTEMP_LHS_3 seed0_I0_2) (+ seed0_PCTEMP_LHS_3 (- 729))))) (or (ite seed0_T_SELECT_1 (and (= seed0_PCTEMP_LHS_1 (+ seed0_I0_2 0)) (= seed0_var_0xINPUT_34919 (str.++ seed0_T0_2 seed0_T1_2)) (= seed0_I0_2 (str.len seed0_T4_2)) (= 0 (str.len seed0_T0_2)) (= seed0_T1_2 (str.++ seed0_T2_2 seed0_T3_2)) (= seed0_T2_2 (str.++ seed0_T4_2 seed0_T5_2)) (= seed0_T5_2 "__utma=218069774.") (not (str.in_re seed0_T4_2 (re.++ (str.to_re "_") (str.to_re "_") (str.to_re "u") (str.to_re "t") (str.to_re "m") (str.to_re "a") (str.to_re "=") (str.to_re "2") (str.to_re "1") (str.to_re "8") (str.to_re "0") (str.to_re "6") (str.to_re "9") (str.to_re "7") (str.to_re "7") (str.to_re "4") (str.to_re "."))))) (and (= seed0_PCTEMP_LHS_1 (- 1)) (= seed0_var_0xINPUT_34919 (str.++ seed0_T0_2 seed0_T1_2)) (= 0 (str.len seed0_T0_2)) (not (str.in_re seed0_T1_2 (re.++ (str.to_re "_") (str.to_re "_") (str.to_re "u") (str.to_re "t") (str.to_re "m") (str.to_re "a") (str.to_re "=") (str.to_re "2") (str.to_re "1") (str.to_re "8") (str.to_re "0") (str.to_re "6") (str.to_re "9") (str.to_re "7") (str.to_re "7") (str.to_re "4") (str.to_re ".")))))) (not (<= (div seed0_I0_2 seed0_I0_6) (* seed0_I0_2 seed0_I0_2)))) (or (= seed0_T_SELECT_2 (not (= seed0_PCTEMP_LHS_2 (- 1)))) (str.prefixof (str.++ seed0_var_0xINPUT_34919 "mOF3la") (str.++ seed0_T5_4 "Rh"))) (or (ite seed0_T_SELECT_2 (and (= seed0_PCTEMP_LHS_2 (+ seed0_I0_4 0)) (= seed0_var_0xINPUT_34919 (str.++ seed0_T0_4 seed0_T1_4)) (= seed0_I0_4 (str.len seed0_T4_4)) (= 0 (str.len seed0_T0_4)) (= seed0_T1_4 (str.++ seed0_T2_4 seed0_T3_4)) (= seed0_T2_4 (str.++ seed0_T4_4 seed0_T5_4)) (= seed0_T5_4 "__utmb=218069774") (not (str.in_re seed0_T4_4 (re.++ (str.to_re "_") (str.to_re "_") (str.to_re "u") (str.to_re "t") (str.to_re "m") (str.to_re "b") (str.to_re "=") (str.to_re "2") (str.to_re "1") (str.to_re "8") (str.to_re "0") (str.to_re "6") (str.to_re "9") (str.to_re "7") (str.to_re "7") (str.to_re "4"))))) (and (= seed0_PCTEMP_LHS_2 (- 1)) (= seed0_var_0xINPUT_34919 (str.++ seed0_T0_4 seed0_T1_4)) (= 0 (str.len seed0_T0_4)) (not (str.in_re seed0_T1_4 (re.++ (str.to_re "_") (str.to_re "_") (str.to_re "u") (str.to_re "t") (str.to_re "m") (str.to_re "b") (str.to_re "=") (str.to_re "2") (str.to_re "1") (str.to_re "8") (str.to_re "0") (str.to_re "6") (str.to_re "9") (str.to_re "7") (str.to_re "7") (str.to_re "4")))))) (xor (< (* seed0_I0_4 seed0_PCTEMP_LHS_3) (div seed0_I0_2 seed0_I0_4)) (= (mod seed0_PCTEMP_LHS_2 seed0_I0_2) (* seed0_PCTEMP_LHS_2 seed0_I0_6)))) (or (= seed0_T_SELECT_3 (not (= seed0_PCTEMP_LHS_3 (- 1)))) (not (str.prefixof (str.++ seed0_T3_2 "uV1rFn7HeGZJ3ft6cm") (str.++ seed0_T2_2 "Rn")))) (or (ite seed0_T_SELECT_3 (and (= seed0_PCTEMP_LHS_3 (+ seed0_I0_6 0)) (= seed0_var_0xINPUT_34919 (str.++ seed0_T0_6 seed0_T1_6)) (= seed0_I0_6 (str.len seed0_T4_6)) (= 0 (str.len seed0_T0_6)) (= seed0_T1_6 (str.++ seed0_T2_6 seed0_T3_6)) (= seed0_T2_6 (str.++ seed0_T4_6 seed0_T5_6)) (= seed0_T5_6 "__utmc=218069774") (not (str.in_re seed0_T4_6 (re.++ (str.to_re "_") (str.to_re "_") (str.to_re "u") (str.to_re "t") (str.to_re "m") (str.to_re "c") (str.to_re "=") (str.to_re "2") (str.to_re "1") (str.to_re "8") (str.to_re "0") (str.to_re "6") (str.to_re "9") (str.to_re "7") (str.to_re "7") (str.to_re "4"))))) (and (= seed0_PCTEMP_LHS_3 (- 1)) (= seed0_var_0xINPUT_34919 (str.++ seed0_T0_6 seed0_T1_6)) (= 0 (str.len seed0_T0_6)) (not (str.in_re seed0_T1_6 (re.++ (str.to_re "_") (str.to_re "_") (str.to_re "u") (str.to_re "t") (str.to_re "m") (str.to_re "c") (str.to_re "=") (str.to_re "2") (str.to_re "1") (str.to_re "8") (str.to_re "0") (str.to_re "6") (str.to_re "9") (str.to_re "7") (str.to_re "7") (str.to_re "4")))))) (xor (str.contains (str.++ seed0_T2_6 "xnUg0j") (str.++ seed0_var_0xINPUT_34919 "3uL2dziYhKJ")) (str.suffixof (str.++ seed0_T3_4 "yHR0VZrdX56ONenCMc8t") (str.++ seed0_T3_4 "3Frv")))) (or (= seed0_T_4 (<= 0 seed0_PCTEMP_LHS_1)) (str.prefixof (str.++ seed0_T5_6 "Y08kFwSbznC5INHeP") (str.++ seed0_T5_2 "ATJZ9GwVIUj"))) (or (= seed0_T_5 (not seed0_T_4)) (or (> (- seed0_PCTEMP_LHS_3 66) (- seed0_PCTEMP_LHS_3 (- 214))) (distinct (+ seed0_PCTEMP_LHS_3 611) (+ seed0_PCTEMP_LHS_1 (- 786))))) (or seed0_T_5 (not (distinct (- seed0_PCTEMP_LHS_1 (- 869)) (mod seed0_PCTEMP_LHS_3 seed0_I0_4)))) (or (= seed0_T_6 (<= 0 seed0_PCTEMP_LHS_1)) (or (< (* seed0_I0_6 seed0_I0_4) (mod seed0_PCTEMP_LHS_3 seed0_PCTEMP_LHS_3)) (= (- seed0_I0_4 694) (* seed0_I0_6 seed0_PCTEMP_LHS_2)))) (or (= seed0_T_7 (not seed0_T_6)) (and (str.<= (str.++ seed0_T3_4 "rko5qmQ2") (str.++ seed0_T2_4 "ymjCq35JW")) (str.< (str.++ seed0_T4_4 "IWmL4ncyHKvz") (str.++ seed0_T1_6 "")))) (or seed0_T_7 (and (>= (div seed0_PCTEMP_LHS_2 seed0_I0_4) (- seed0_PCTEMP_LHS_1 (- 708))) (>= (* seed0_PCTEMP_LHS_1 seed0_I0_2) (div seed0_PCTEMP_LHS_3 seed0_I0_4)))) (or (= seed0_T_8 (<= 0 seed0_PCTEMP_LHS_1)) (and (= (* seed0_PCTEMP_LHS_3 seed0_PCTEMP_LHS_3) (- seed0_PCTEMP_LHS_1 723)) (distinct (- seed0_I0_4 96) (div seed0_I0_4 seed0_PCTEMP_LHS_3)))) (or (= seed0_T_9 (not seed0_T_8)) (< (div seed0_PCTEMP_LHS_2 seed0_I0_2) (* seed0_PCTEMP_LHS_1 seed0_I0_2))) (or seed0_T_9 (not (str.contains (str.++ seed0_T2_6 "XbyCaErs") (str.++ seed0_T2_2 "sGd0wm1Hqv")))) (or (= seed0_T_a (< 0 seed0_PCTEMP_LHS_1)) (and (str.suffixof (str.++ seed0_T2_2 "xSA") (str.++ seed0_T3_6 "60AS4xv2MRQP")) (str.<= (str.++ seed0_T2_2 "bwHQZy3Of") (str.++ seed0_T0_2 "NDd23AXQg")))) (or (= seed0_T_b (not seed0_T_a)) (or (>= (div seed0_I0_6 seed0_I0_2) (+ seed0_I0_2 (- 399))) (>= (* seed0_PCTEMP_LHS_3 seed0_I0_6) (mod seed0_PCTEMP_LHS_1 seed0_PCTEMP_LHS_2)))) (or seed0_T_b (xor (str.< (str.++ seed0_T5_2 "pmeEhofTD82Lul3b6") (str.++ seed0_T2_2 "jlYp7o3q")) (str.<= (str.++ seed0_T0_6 "") (str.++ seed0_T2_4 "Q5mtLAW9jRM7zyq13"))))))
(check-sat)
(exit)